c turning on binary mode checking
c parsing input formula with 202048 variables and 780985 clauses
c finished parsing, read 23766157 bytes from proof file
c detected empty clause; start verification via backward checking
c 49478 of 780985 clauses in core                            
c 80256 of 575762 lemmas in core using 802140 resolution steps
c 0 RAT lemmas in core; 8284 redundant literals in core lemmas
s VERIFIED
c verification time: 4.972 seconds
